Instance/cd8c283f98ea4ae2a947f6ac3b80d044-pulp.mps
*SENSE:Minimize
NAME          MODEL
ROWS
 N  OBJ
 E  C0000000
 E  C0000001
 E  C0000002
 E  C0000003
 E  C0000004
 E  C0000005
 E  C0000006
 E  C0000007
 E  C0000008
 E  C0000009
 E  C0000010
 E  C0000011
 E  C0000012
 E  C0000013
 E  C0000014
 E  C0000015
 E  C0000016
 E  C0000017
 E  C0000018
 E  C0000019
 E  C0000020
COLUMNS
    X0000000  C0000000  -4.024144523277e-01
    X0000000  C0000001   7.144265926179e-01
    X0000000  C0000002   8.653416231160e-01
    X0000000  C0000003   7.202565751814e-01
    X0000000  C0000004   8.696770442455e-01
    X0000000  C0000008   7.206710581035e-01
    X0000000  C0000012   2.749802672404e-02
    X0000000  C0000016   1.000000000000e+00
    X0000000  C0000020   1.000000000000e+00
    X0000001  C0000000   5.975855476723e-01
    X0000001  C0000001  -2.855734073821e-01
    X0000001  C0000002   8.653416231160e-01
    X0000001  C0000003   7.202565751814e-01
    X0000001  C0000005   9.301114348096e-01
    X0000001  C0000009   2.295722842097e-01
    X0000001  C0000013   2.284768303820e-01
    X0000001  C0000020   1.000000000000e+00
    X0000002  C0000000   5.975855476723e-01
    X0000002  C0000001   7.144265926179e-01
    X0000002  C0000002  -1.346583768840e-01
    X0000002  C0000003   7.202565751814e-01
    X0000002  C0000006   8.611519095894e-01
    X0000002  C0000010   2.746474988934e-01
    X0000002  C0000014   7.927615179031e-01
    X0000002  C0000020   1.000000000000e+00
    X0000003  C0000000   5.975855476723e-01
    X0000003  C0000001   7.144265926179e-01
    X0000003  C0000002   8.653416231160e-01
    X0000003  C0000003  -2.797434248186e-01
    X0000003  C0000007   2.705019497171e-01
    X0000003  C0000011   4.736586831129e-01
    X0000003  C0000015   5.503488127346e-01
    X0000003  C0000020   1.000000000000e+00
    X0000004  C0000000   5.975855476723e-01
    X0000004  C0000004  -1.303229557545e-01
    X0000004  C0000005   9.301114348096e-01
    X0000004  C0000006   8.611519095894e-01
    X0000004  C0000007   2.705019497171e-01
    X0000004  C0000008   7.206710581035e-01
    X0000004  C0000012   2.749802672404e-02
    X0000004  C0000020   1.000000000000e+00
    X0000005  C0000001   7.144265926179e-01
    X0000005  C0000004   8.696770442455e-01
    X0000005  C0000005  -6.988856519044e-02
    X0000005  C0000006   8.611519095894e-01
    X0000005  C0000007   2.705019497171e-01
    X0000005  C0000009   2.295722842097e-01
    X0000005  C0000013   2.284768303820e-01
    X0000005  C0000017   1.000000000000e+00
    X0000005  C0000020   1.000000000000e+00
    X0000006  C0000002   8.653416231160e-01
    X0000006  C0000004   8.696770442455e-01
    X0000006  C0000005   9.301114348096e-01
    X0000006  C0000006  -1.388480904106e-01
    X0000006  C0000007   2.705019497171e-01
    X0000006  C0000010   2.746474988934e-01
    X0000006  C0000014   7.927615179031e-01
    X0000006  C0000020   1.000000000000e+00
    X0000007  C0000003   7.202565751814e-01
    X0000007  C0000004   8.696770442455e-01
    X0000007  C0000005   9.301114348096e-01
    X0000007  C0000006   8.611519095894e-01
    X0000007  C0000007  -7.294980502829e-01
    X0000007  C0000011   4.736586831129e-01
    X0000007  C0000015   5.503488127346e-01
    X0000007  C0000020   1.000000000000e+00
    X0000008  C0000000   5.975855476723e-01
    X0000008  C0000004   8.696770442455e-01
    X0000008  C0000008  -2.793289418965e-01
    X0000008  C0000009   2.295722842097e-01
    X0000008  C0000010   2.746474988934e-01
    X0000008  C0000011   4.736586831129e-01
    X0000008  C0000012   2.749802672404e-02
    X0000008  C0000020   1.000000000000e+00
    X0000009  C0000001   7.144265926179e-01
    X0000009  C0000005   9.301114348096e-01
    X0000009  C0000008   7.206710581035e-01
    X0000009  C0000009  -7.704277157903e-01
    X0000009  C0000010   2.746474988934e-01
    X0000009  C0000011   4.736586831129e-01
    X0000009  C0000013   2.284768303820e-01
    X0000009  C0000020   1.000000000000e+00
    X0000010  C0000002   8.653416231160e-01
    X0000010  C0000006   8.611519095894e-01
    X0000010  C0000008   7.206710581035e-01
    X0000010  C0000009   2.295722842097e-01
    X0000010  C0000010  -7.253525011066e-01
    X0000010  C0000011   4.736586831129e-01
    X0000010  C0000014   7.927615179031e-01
    X0000010  C0000018   1.000000000000e+00
    X0000010  C0000020   1.000000000000e+00
    X0000011  C0000003   7.202565751814e-01
    X0000011  C0000007   2.705019497171e-01
    X0000011  C0000008   7.206710581035e-01
    X0000011  C0000009   2.295722842097e-01
    X0000011  C0000010   2.746474988934e-01
    X0000011  C0000011  -5.263413168871e-01
    X0000011  C0000015   5.503488127346e-01
    X0000011  C0000020   1.000000000000e+00
    X0000012  C0000000   5.975855476723e-01
    X0000012  C0000004   8.696770442455e-01
    X0000012  C0000008   7.206710581035e-01
    X0000012  C0000012  -9.725019732760e-01
    X0000012  C0000013   2.284768303820e-01
    X0000012  C0000014   7.927615179031e-01
    X0000012  C0000015   5.503488127346e-01
    X0000012  C0000020   1.000000000000e+00
    X0000013  C0000001   7.144265926179e-01
    X0000013  C0000005   9.301114348096e-01
    X0000013  C0000009   2.295722842097e-01
    X0000013  C0000012   2.749802672404e-02
    X0000013  C0000013  -7.715231696180e-01
    X0000013  C0000014   7.927615179031e-01
    X0000013  C0000015   5.503488127346e-01
    X0000013  C0000020   1.000000000000e+00
    X0000014  C0000002   8.653416231160e-01
    X0000014  C0000006   8.611519095894e-01
    X0000014  C0000010   2.746474988934e-01
    X0000014  C0000012   2.749802672404e-02
    X0000014  C0000013   2.284768303820e-01
    X0000014  C0000014  -2.072384820969e-01
    X0000014  C0000015   5.503488127346e-01
    X0000014  C0000020   1.000000000000e+00
    X0000015  C0000003   7.202565751814e-01
    X0000015  C0000007   2.705019497171e-01
    X0000015  C0000011   4.736586831129e-01
    X0000015  C0000012   2.749802672404e-02
    X0000015  C0000013   2.284768303820e-01
    X0000015  C0000014   7.927615179031e-01
    X0000015  C0000015  -4.496511872654e-01
    X0000015  C0000019   1.000000000000e+00
    X0000015  C0000020   1.000000000000e+00
    X0000016  OBJ        1.000000000000e+00
RHS
    RHS       C0000000   0.000000000000e+00
    RHS       C0000001   0.000000000000e+00
    RHS       C0000002   0.000000000000e+00
    RHS       C0000003   0.000000000000e+00
    RHS       C0000004   0.000000000000e+00
    RHS       C0000005   0.000000000000e+00
    RHS       C0000006   0.000000000000e+00
    RHS       C0000007   0.000000000000e+00
    RHS       C0000008   0.000000000000e+00
    RHS       C0000009   0.000000000000e+00
    RHS       C0000010   0.000000000000e+00
    RHS       C0000011   0.000000000000e+00
    RHS       C0000012   0.000000000000e+00
    RHS       C0000013   0.000000000000e+00
    RHS       C0000014   0.000000000000e+00
    RHS       C0000015   0.000000000000e+00
    RHS       C0000016   0.000000000000e+00
    RHS       C0000017   0.000000000000e+00
    RHS       C0000018   0.000000000000e+00
    RHS       C0000019   0.000000000000e+00
    RHS       C0000020   1.000000000000e+00
BOUNDS
 UP BND       X0000000   1.000000000000e+00
 UP BND       X0000001   1.000000000000e+00
 UP BND       X0000002   1.000000000000e+00
 UP BND       X0000003   1.000000000000e+00
 UP BND       X0000004   1.000000000000e+00
 UP BND       X0000005   1.000000000000e+00
 UP BND       X0000006   1.000000000000e+00
 UP BND       X0000007   1.000000000000e+00
 UP BND       X0000008   1.000000000000e+00
 UP BND       X0000009   1.000000000000e+00
 UP BND       X0000010   1.000000000000e+00
 UP BND       X0000011   1.000000000000e+00
 UP BND       X0000012   1.000000000000e+00
 UP BND       X0000013   1.000000000000e+00
 UP BND       X0000014   1.000000000000e+00
 UP BND       X0000015   1.000000000000e+00
 FX BND       X0000016   0.000000000000e+00
ENDATA
