Instance/cd8c283f98ea4ae2a947f6ac3b80d044-pulp.sol
Infeasible - objective value 0.00000000
      0 C0000000               0         -3.6531507e-009
**       1 C0000001       6.4151435                       0
      2 C0000002               0         -1.4560068e-008
      3 C0000003               0         -1.2914702e-008
      4 C0000004               0         -1.2763211e-008
      5 C0000005               0         -8.0476431e-009
**       6 C0000006       19.082678                       0
      7 C0000007               0         -1.3273095e-008
      8 C0000008               0         -2.0833502e-009
**       9 C0000009      0.15090388                       0
     10 C0000010               0         -5.1951313e-009
**      11 C0000011      -5.8181377                       0
**      12 C0000012     -0.12569286                       0
**      13 C0000013       2.3081263                       0
     14 C0000014               0         -3.6937212e-009
     15 C0000015               0                       0
     16 C0000016               0                       0
**      17 C0000017        7.784792                       0
**      18 C0000018     -0.51894774                       0
**      19 C0000019      -4.1696691                       0
     20 C0000020               1          1.8570597e-008
      0 X0000000               0          1.8949936e-008
      1 X0000001               0          1.7063156e-008
**       2 X0000002       6.9513294                       0
**       3 X0000003      -3.0041538                       0
**       4 X0000004       3.3374869                       0
**       5 X0000005        7.784792                       0
      6 X0000006               0          2.5409226e-008
      7 X0000007               0           5.747655e-009
**       8 X0000008      -7.2846625                       0
**       9 X0000009      -1.6935864                       0
**      10 X0000010     -0.51894774                       0
**      11 X0000011      -3.9484559                       0
     12 X0000012               0          1.1647751e-008
**      13 X0000013      -1.0589512                       0
**      14 X0000014       4.6048185                       0
**      15 X0000015      -4.1696691                       0
     16 X0000016               0                       1
